p tw 64 5441 2 
1 33 
1 35 
1 37 
1 39 
1 41 
1 43 
1 45 
1 47 
1 49 
1 51 
1 53 
1 55 
1 57 
1 59 
1 61 
1 63 
2 34 
2 36 
2 38 
2 40 
2 42 
2 44 
2 46 
2 48 
2 50 
2 52 
2 54 
2 56 
2 58 
2 60 
2 62 
2 64 
3 4 
3 33 
3 36 
3 37 
3 40 
3 41 
3 44 
3 45 
3 48 
3 49 
3 52 
3 53 
3 56 
3 57 
3 60 
3 61 
3 64 
4 34 
4 35 
4 38 
4 39 
4 42 
4 43 
4 46 
4 47 
4 50 
4 51 
4 54 
4 55 
4 58 
4 59 
4 62 
4 63 
5 6 
5 33 
5 35 
5 38 
5 40 
5 41 
5 43 
5 46 
5 48 
5 49 
5 51 
5 54 
5 56 
5 57 
5 59 
5 62 
5 64 
6 34 
6 36 
6 37 
6 39 
6 42 
6 44 
6 45 
6 47 
6 50 
6 52 
6 53 
6 55 
6 58 
6 60 
6 61 
6 63 
7 8 
7 33 
7 36 
7 38 
7 39 
7 41 
7 44 
7 46 
7 47 
7 49 
7 52 
7 54 
7 55 
7 57 
7 60 
7 62 
7 63 
8 34 
8 35 
8 37 
8 40 
8 42 
8 43 
8 45 
8 48 
8 50 
8 51 
8 53 
8 56 
8 58 
8 59 
8 61 
8 64 
9 10 
9 33 
9 35 
9 37 
9 39 
9 42 
9 44 
9 46 
9 48 
9 49 
9 51 
9 53 
9 55 
9 58 
9 60 
9 62 
9 64 
10 34 
10 36 
10 38 
10 40 
10 41 
10 43 
10 45 
10 47 
10 50 
10 52 
10 54 
10 56 
10 57 
10 59 
10 61 
10 63 
11 12 
11 33 
11 36 
11 37 
11 40 
11 42 
11 43 
11 46 
11 47 
11 49 
11 52 
11 53 
11 56 
11 58 
11 59 
11 62 
11 63 
12 34 
12 35 
12 38 
12 39 
12 41 
12 44 
12 45 
12 48 
12 50 
12 51 
12 54 
12 55 
12 57 
12 60 
12 61 
12 64 
13 14 
13 33 
13 35 
13 38 
13 40 
13 42 
13 44 
13 45 
13 47 
13 49 
13 51 
13 54 
13 56 
13 58 
13 60 
13 61 
13 63 
14 34 
14 36 
14 37 
14 39 
14 41 
14 43 
14 46 
14 48 
14 50 
14 52 
14 53 
14 55 
14 57 
14 59 
14 62 
14 64 
15 16 
15 33 
15 36 
15 38 
15 39 
15 42 
15 43 
15 45 
15 48 
15 49 
15 52 
15 54 
15 55 
15 58 
15 59 
15 61 
15 64 
16 34 
16 35 
16 37 
16 40 
16 41 
16 44 
16 46 
16 47 
16 50 
16 51 
16 53 
16 56 
16 57 
16 60 
16 62 
16 63 
17 18 
17 33 
17 35 
17 37 
17 39 
17 41 
17 43 
17 45 
17 47 
17 50 
17 52 
17 54 
17 56 
17 58 
17 60 
17 62 
17 64 
18 34 
18 36 
18 38 
18 40 
18 42 
18 44 
18 46 
18 48 
18 49 
18 51 
18 53 
18 55 
18 57 
18 59 
18 61 
18 63 
19 20 
19 33 
19 36 
19 37 
19 40 
19 41 
19 44 
19 45 
19 48 
19 50 
19 51 
19 54 
19 55 
19 58 
19 59 
19 62 
19 63 
20 34 
20 35 
20 38 
20 39 
20 42 
20 43 
20 46 
20 47 
20 49 
20 52 
20 53 
20 56 
20 57 
20 60 
20 61 
20 64 
21 22 
21 33 
21 35 
21 38 
21 40 
21 41 
21 43 
21 46 
21 48 
21 50 
21 52 
21 53 
21 55 
21 58 
21 60 
21 61 
21 63 
22 34 
22 36 
22 37 
22 39 
22 42 
22 44 
22 45 
22 47 
22 49 
22 51 
22 54 
22 56 
22 57 
22 59 
22 62 
22 64 
23 24 
23 33 
23 36 
23 38 
23 39 
23 41 
23 44 
23 46 
23 47 
23 50 
23 51 
23 53 
23 56 
23 58 
23 59 
23 61 
23 64 
24 34 
24 35 
24 37 
24 40 
24 42 
24 43 
24 45 
24 48 
24 49 
24 52 
24 54 
24 55 
24 57 
24 60 
24 62 
24 63 
25 26 
25 33 
25 35 
25 37 
25 39 
25 42 
25 44 
25 46 
25 48 
25 50 
25 52 
25 54 
25 56 
25 57 
25 59 
25 61 
25 63 
26 34 
26 36 
26 38 
26 40 
26 41 
26 43 
26 45 
26 47 
26 49 
26 51 
26 53 
26 55 
26 58 
26 60 
26 62 
26 64 
27 28 
27 33 
27 36 
27 37 
27 40 
27 42 
27 43 
27 46 
27 47 
27 50 
27 51 
27 54 
27 55 
27 57 
27 60 
27 61 
27 64 
28 34 
28 35 
28 38 
28 39 
28 41 
28 44 
28 45 
28 48 
28 49 
28 52 
28 53 
28 56 
28 58 
28 59 
28 62 
28 63 
29 30 
29 33 
29 35 
29 38 
29 40 
29 42 
29 44 
29 45 
29 47 
29 50 
29 52 
29 53 
29 55 
29 57 
29 59 
29 62 
29 64 
30 34 
30 36 
30 37 
30 39 
30 41 
30 43 
30 46 
30 48 
30 49 
30 51 
30 54 
30 56 
30 58 
30 60 
30 61 
30 63 
31 32 
31 33 
31 36 
31 38 
31 39 
31 42 
31 43 
31 45 
31 48 
31 50 
31 51 
31 53 
31 56 
31 57 
31 60 
31 62 
31 63 
32 34 
32 35 
32 37 
32 40 
32 41 
32 44 
32 46 
32 47 
32 49 
32 52 
32 54 
32 55 
32 58 
32 59 
32 61 
32 64 
33 34 
35 36 
37 38 
39 40 
41 42 
43 44 
45 46 
47 48 
49 50 
51 52 
53 54 
55 56 
57 58 
59 60 
61 62 
63 64 
